
  32    4
  10   10   10   10

   0   0   0   0   0  11 2 3 4 6 7 9 11 12 14 21 31 
   1   1   1   0   1   5 29 19 18 17 5 
   5   3   2   1   0   6 30 28 27 18 15 10 
   2   5   5   0   6   7 30 29 28 26 23 20 13 
   4   2   3   0   6   3 28 15 8 
   9   1   4   5   0   5 27 24 23 17 13 
   1   0   2   4   1   2 28 8 
  10   0   2   2   2   4 27 24 23 13 
   4   1   4   0   4   3 26 23 13 
   7   0   9   6   4   4 25 24 23 16 
   2   2   0   3   5   4 29 27 23 22 
  10   0   3   7   4   2 18 17 
   4   7   6   1   0   2 25 16 
   2   4   0   8   7   2 23 16 
   4   0   5   3   3   2 26 24 
   8   4   5   0   4   1 22 
   5   3   0   8   5   1 26 
   7   0   5   4   3   1 23 
   3   5   4   7   0   1 28 
   9   4   0   2   6   1 24 
   8   5   3   1   0   1 22 
   4   7   2   4   0   1 32
   6   4   4   4   0   1 32
   7   3   4   0   3   1 32
   5   9   3   3   0   1 32
   9   6   6   0   4   1 32
   5   0   3   2   5   1 32
   3   0   6   6   8   1 32
   3   0   7   2   2   1 32
  10   4   3   0   2   1 32
   8   0   3   5   3   1 32
   0   0   0   0   0   0 
